0 4498
2401 4366
4802 4262
7203 4167
9604 4073
12005 3992
14406 3950
16807 3912
19208 3881
21609 3835
24010 3819
26411 3796
28812 3775
31213 3729
33614 3702
36015 3682
38416 3649
40817 3628
43218 3612
45619 3603
48020 3592
50421 3591
52822 3586
55223 3582
57624 3581
